Problem:    
Rows:       105
Columns:    45 (34 integer, 34 binary)
Non-zeros:  302
Status:     INTEGER OPTIMAL
Objective:  value = 26.81657 (MINimum)

   No.   Row name        Activity     Lower bound   Upper bound
------ ------------    ------------- ------------- -------------
     1 r.5                   26.8166             0               
     2 r.6                    -15.74      -495.394               
     3 r.7                   526.817             0               
     4 r.8                  -473.183      -497.186               
     5 r.9                   26.8166             0               
     6 r.10                  8.19827      -476.062               
     7 r.11                  526.817             0               
     8 r.12                 -475.998      -483.021               
     9 r.13                  526.817             0               
    10 r.14                 -473.183      -487.581               
    11 r.15                  26.8166             0               
    12 r.16                  7.02377      -489.927               
    13 r.17                  526.817             0               
    14 r.18                 -485.603      -493.801               
    15 r.19                  26.8166             0               
    16 r.20                 -3.04953      -495.916               
    17 r.21                  526.817             0               
    18 r.22                 -499.115      -499.115               
    19 r.23                  26.8166             0               
    20 r.24                    0.885      -498.225               
    21 r.25                        1             1             = 
    22 r.26                        1             1             = 
    23 r.27                        1             1             = 
    24 r.28                        1             1             = 
    25 r.29                        1             1             = 
    26 r.30                  23.9383       23.9383               
    27 r.31                 -23.9383      -495.394               
    28 r.32                  497.186       16.9787               
    29 r.33                 -497.186      -497.186               
    30 r.34                  42.5566       12.4193               
    31 r.35                 -42.5566      -495.394               
    32 r.36                  480.207       10.0733               
    33 r.37                 -480.207      -497.186               
    34 r.38                  30.1373         6.199               
    35 r.39                 -30.1373      -495.394               
    36 r.40                  470.134        4.0844               
    37 r.41                 -470.134      -497.186               
    38 r.42                  -16.625      -492.656               
    39 r.43                 -474.068      -491.047               
    40 r.44                  -16.625      -492.656               
    41 r.45                 -474.068      -491.047               
    42 r.46                  476.062        4.6064               
    43 r.47                 -476.062      -476.062               
    44 r.48                   2.8141        2.8141               
    45 r.49                  -2.8141      -483.021               
    46 r.50                  18.6183       12.4193               
    47 r.51                 -18.6183      -476.062               
    48 r.52                  483.021       10.0733               
    49 r.53                 -483.021      -483.021               
    50 r.54                    6.199         6.199               
    51 r.55                   -6.199      -476.062               
    52 r.56                  472.948        4.0844               
    53 r.57                 -472.948      -483.021               
    54 r.58                  7.31327      -473.324               
    55 r.59                 -476.883      -476.883               
    56 r.60                  7.31327      -473.324               
    57 r.61                 -476.883      -476.883               
    58 r.62                  457.443        4.6064               
    59 r.63                 -457.443      -487.581               
    60 r.64                  19.7928        2.8141               
    61 r.65                 -19.7928      -489.927               
    62 r.66                  481.382       23.9383               
    63 r.67                 -481.382      -487.581               
    64 r.68                  16.9787       16.9787               
    65 r.69                 -16.9787      -489.927               
    66 r.70                  487.581         6.199               
    67 r.71                 -487.581      -487.581               
    68 r.72                  489.927        4.0844               
    69 r.73                 -489.927      -489.927               
    70 r.74                 -474.068      -484.843               
    71 r.75                  6.13877      -483.788               
    72 r.76                 -474.068      -484.843               
    73 r.77                  6.13877      -483.788               
    74 r.78                  469.863        4.6064               
    75 r.79                 -469.863      -493.801               
    76 r.80                  29.8661        2.8141               
    77 r.81                 -29.8661      -495.916               
    78 r.82                  493.801       23.9383               
    79 r.83                 -493.801      -493.801               
    80 r.84                   27.052       16.9787               
    81 r.85                  -27.052      -495.916               
    82 r.86                  12.4193       12.4193               
    83 r.87                 -12.4193      -493.801               
    84 r.88                  10.0733       10.0733               
    85 r.89                 -10.0733      -495.916               
    86 r.90                 -486.488      -491.064               
    87 r.91                 -3.93453      -489.777               
    88 r.92                 -486.488      -491.064               
    89 r.93                 -3.93453      -489.777               
    90 r.94                  -16.625      -492.656               
    91 r.95                 -474.068      -491.047               
    92 r.96                  -16.625      -492.656               
    93 r.97                 -474.068      -491.047               
    94 r.98                  7.31327      -473.324               
    95 r.99                 -476.883      -476.883               
    96 r.100                 7.31327      -473.324               
    97 r.101                -476.883      -476.883               
    98 r.102                -474.068      -484.843               
    99 r.103                 6.13877      -483.788               
   100 r.104                -474.068      -484.843               
   101 r.105                 6.13877      -483.788               
   102 r.106                -486.488      -491.064               
   103 r.107                -3.93453      -489.777               
   104 r.108                -486.488      -491.064               
   105 r.109                -3.93453      -489.777               

   No. Column name       Activity     Lower bound   Upper bound
------ ------------    ------------- ------------- -------------
     1 tt                    26.8166             0               
     2 s_1_1        *              0             0             1 
     3 t_1_1                 42.5566             0               
     4 s_2_1        *              1             0             1 
     5 t_2_1                       0             0               
     6 s_1_2        *              0             0             1 
     7 t_1_2                 18.6183             0               
     8 s_2_2        *              1             0             1 
     9 t_2_2                  2.8141             0               
    10 s_1_3        *              1             0             1 
    11 t_1_3                       0             0               
    12 s_2_3        *              0             0             1 
    13 t_2_3                 19.7928             0               
    14 s_1_4        *              1             0             1 
    15 t_1_4                 12.4193             0               
    16 s_2_4        *              0             0             1 
    17 t_2_4                 29.8661             0               
    18 s_1_5        *              1             0             1 
    19 t_1_5                 25.9316             0               
    20 s_2_5        *              0             0             1 
    21 t_2_5                 25.9316             0               
    22 u_1_1_2      *              0             0             1 
    23 u_2_1_2      *              1             0             1 
    24 u_1_1_3      *              0             0             1 
    25 u_2_1_3      *              1             0             1 
    26 u_1_1_4      *              0             0             1 
    27 u_2_1_4      *              1             0             1 
    28 u_1_2_1      *              1             0             1 
    29 u_2_2_1      *              0             0             1 
    30 u_1_2_3      *              0             0             1 
    31 u_2_2_3      *              1             0             1 
    32 u_1_2_4      *              0             0             1 
    33 u_2_2_4      *              1             0             1 
    34 u_1_3_1      *              1             0             1 
    35 u_2_3_1      *              0             0             1 
    36 u_1_3_2      *              1             0             1 
    37 u_2_3_2      *              0             0             1 
    38 u_1_3_4      *              1             0             1 
    39 u_2_3_4      *              1             0             1 
    40 u_1_4_1      *              1             0             1 
    41 u_2_4_1      *              0             0             1 
    42 u_1_4_2      *              1             0             1 
    43 u_2_4_2      *              0             0             1 
    44 u_1_4_3      *              0             0             1 
    45 u_2_4_3      *              0             0             1 

Integer feasibility conditions:

KKT.PE: max.abs.err = 1.14e-13 on row 42
        max.rel.err = 1.09e-16 on row 42
        High quality

KKT.PB: max.abs.err = 3.55e-15 on row 26
        max.rel.err = 9.31e-16 on row 44
        High quality

End of output
